unsat
((set-logic NIA)
(declare-fun s!1 () Int)
(declare-fun r!2 () Int)
(declare-fun x!0 () Int)
(proof
(let ((?x589 (* (- 1) s!1)))
 (let ((?x1030 (* r!2 r!2)))
 (let ((?x629 (* 3 ?x1030)))
 (let ((?x249 (* r00 r00)))
 (let ((?x263 (* (- 3) ?x249)))
 (let ((?x488 (+ s00 ?x263 ?x629 ?x589)))
 (let (($x696 (<= ?x488 0)))
 (let (($x342 (= ?x488 0)))
 (let ((?x654 (+ 1 r!2)))
 (let ((?x1001 (* ?x654 ?x654 ?x654 (+ x!0 ?x589) ?x488)))
 (let (($x309 (= ?x1001 0)))
 (let (($x1008 (not $x309)))
 (let ((?x1294 (* x00 x00)))
 (let ((?x318 (* 108 ?x1294)))
 (let ((?x882 (* (- 9) s!1)))
 (let ((?x1132 (* s00 s00 s00)))
 (let ((?x1043 (* 16 ?x1132)))
 (let ((?x931 (* r00 r00 s!1)))
 (let ((?x1119 (* 36 ?x931)))
 (let ((?x830 (* r00 r00 r00 x00)))
 (let ((?x641 (* (- 432) ?x830)))
 (let ((?x753 (* s00 x00)))
 (let ((?x895 (* (- 108) ?x753)))
 (let ((?x595 (* s00 r00 r00)))
 (let ((?x734 (* (- 36) ?x595)))
 (let ((?x539 (* s00 s00)))
 (let ((?x1113 (* 51 ?x539)))
 (let ((?x470 (* r00 x00)))
 (let ((?x327 (* 108 ?x470)))
 (let ((?x137 (* 9 s00)))
 (let ((?x904 (+ ?x137 (* 36 (* r00 r00 s!1 s!1)) (* (- 54) (* s00 r00)) (* 216 (* s00 r00 x00)) ?x327 (* (- 66) (* s00 s!1)) ?x1113 ?x734 (* (- 108) (* s00 s00 r00)) (* (- 36) (* s00 s00 r00 r00)) (* (- 216) (* x00 x!0)) (* 108 (* x!0 x!0)) ?x895 (* (- 4) (* s!1 s!1 s!1)) ?x641 (* 108 (* x00 s!1)) ?x1119 (* 54 (* r00 s!1)) (* (- 216) (* r00 r00 r00 s!1)) (* 216 (* s00 r00 r00 r00)) (* 108 (* s00 r00 s!1)) (* 108 (* s00 x!0)) (* (- 108) (* x!0 s!1)) ?x1043 ?x882 (* (- 108) (* r00 x!0)) ?x318 (* (- 12) (* s00 s!1 s!1)) (* 432 (* r00 r00 r00 x!0)) (* (- 216) (* s00 r00 x!0)) (* 15 (* s!1 s!1)))))
 (let ((?x825 (* r00 r00 x00)))
 (let ((?x675 (* 36 ?x825)))
 (let ((?x1133 (* (- 6) ?x753)))
 (let ((?x681 (* 15 ?x539)))
 (let ((?x782 (* 54 ?x470)))
 (let ((?x1411 (+ ?x137 (* (- 36) (* r00 r00 x!0)) (* 54 (* x00 r!2)) (* (- 24) (* s00 r00)) (* (- 54) (* x!0 r!2)) ?x782 (* (- 12) (* s00 s!1)) ?x681 ?x734 (* 2 (* s00 s00 r00)) (* (- 4) (* r00 s!1 s!1)) ?x1133 (* (- 24) (* s00 r!2)) ?x675 (* 24 (* s!1 r!2)) (* 6 (* x00 s!1)) (* (- 36) (* r00 x!0 r!2)) ?x1119 (* 24 (* r00 s!1)) (* 2 (* s00 r00 s!1)) (* 6 (* s00 x!0)) (* (- 2) (* s!1 s!1 r!2)) (* (- 6) (* x!0 s!1)) ?x882 (* (- 54) (* r00 x!0)) (* (- 2) (* s00 s!1 r!2)) (* 36 (* r00 x00 r!2)) (* 4 (* s00 s00 r!2)) (* (- 3) (* s!1 s!1)))))
 (let ((?x1286 (* (- 3) s!1)))
 (let ((?x366 (* 4 ?x539)))
 (let ((?x1072 (* 18 ?x470)))
 (let ((?x44 (* 3 s00)))
 (let ((?x1058 (+ ?x44 (* 18 (* x00 r!2)) (* 6 (* s00 r00 r!2)) (* (- 6) (* r00 s!1 r!2)) (* (- 9) (* s00 r00)) (* (- 18) (* x!0 r!2)) ?x1072 (* (- 2) (* s00 s!1)) ?x366 (* (- 6) ?x595) (* (- 9) (* s00 r!2)) (* 9 (* s!1 r!2)) (* 6 ?x931) (* 9 (* r00 s!1)) ?x1286 (* (- 18) (* r00 x!0)) (* (- 2) (* s!1 s!1)))))
 (let ((?x536 (* 3 r!2)))
 (let ((?x1282 (* 6 x!0)))
 (let ((?x417 (* r00 r00 r00)))
 (let ((?x418 (* 12 ?x417)))
 (let ((?x374 (* s00 r00)))
 (let ((?x452 (* (- 6) ?x374)))
 (let ((?x449 (* (- 6) x00)))
 (let ((?x448 (* (- 3) r00)))
 (let ((?x364 (+ ?x44 ?x448 ?x449 ?x452 ?x418 ?x1282 (* (- 12) (* r00 r00 r!2)) (* 4 (* s00 r!2)) (* 2 (* s!1 r!2)) ?x1286 ?x536)))
 (let (($x995 (and $x342 (= ?x364 0) (= ?x1058 0) (= ?x1411 0) (= ?x904 0) $x1008)))
 (let (($x988 (= (* ?x654 ?x654 ?x654 (+ ?x589 x!0) (+ ?x589 s00 ?x629 ?x263)) 0)))
 (let ((?x1324 (* (- 108) ?x1294)))
 (let ((?x1323 (* (- 16) ?x1132)))
 (let ((?x1004 (* s00 r00 r00 r00)))
 (let ((?x1319 (* (- 216) ?x1004)))
 (let ((?x831 (* 432 ?x830)))
 (let ((?x1077 (* 108 ?x753)))
 (let ((?x679 (* s00 s00 r00 r00)))
 (let ((?x680 (* 36 ?x679)))
 (let ((?x616 (* s00 s00 r00)))
 (let ((?x960 (* 108 ?x616)))
 (let ((?x948 (* 36 ?x595)))
 (let ((?x1313 (* (- 51) ?x539)))
 (let ((?x1360 (* s!1 r00 r00)))
 (let ((?x1087 (* (- 36) ?x1360)))
 (let ((?x1310 (* (- 108) ?x470)))
 (let ((?x461 (* s00 r00 x00)))
 (let ((?x1309 (* (- 216) ?x461)))
 (let ((?x468 (* 54 ?x374)))
 (let ((?x935 (* (- 9) s00)))
 (let ((?x1134 (* 9 s!1)))
 (let ((?x646 (+ ?x1134 ?x935 ?x468 ?x1309 ?x1310 (* (- 15) (* s!1 s!1)) ?x1087 ?x1313 (* (- 108) (* x!0 s00)) (* 108 (* x!0 r00)) (* 216 (* s!1 r00 r00 r00)) ?x948 ?x960 (* 66 (* s!1 s00)) (* (- 54) (* s!1 r00)) (* (- 108) (* s!1 x00)) ?x680 (* (- 108) (* s!1 s00 r00)) (* 4 (* s!1 s!1 s!1)) ?x1077 (* 108 (* s!1 x!0)) (* (- 108) (* x!0 x!0)) ?x831 (* 12 (* s!1 s!1 s00)) ?x1319 (* (- 432) (* x!0 r00 r00 r00)) (* 216 (* x!0 s00 r00)) (* (- 36) (* s!1 s!1 r00 r00)) ?x1323 (* 216 (* x!0 x00)) ?x1324)))
 (let ((?x838 (* (- 36) ?x825)))
 (let ((?x754 (* 6 ?x753)))
 (let ((?x644 (* (- 2) ?x616)))
 (let ((?x864 (* (- 15) ?x539)))
 (let ((?x499 (* (- 54) ?x470)))
 (let ((?x512 (* 24 ?x374)))
 (let ((?x602 (+ ?x1134 ?x935 (* (- 24) (* r!2 s!1)) (* 24 (* r!2 s00)) ?x512 ?x499 (* 3 (* s!1 s!1)) (* 54 (* r!2 x!0)) (* 36 (* r!2 x!0 r00)) ?x1087 ?x864 (* (- 6) (* x!0 s00)) (* 54 (* x!0 r00)) ?x948 (* 4 (* s!1 s!1 r00)) (* (- 54) (* r!2 x00)) ?x644 (* 12 (* s!1 s00)) (* (- 24) (* s!1 r00)) (* (- 6) (* s!1 x00)) (* (- 2) (* s!1 s00 r00)) ?x754 (* 2 (* r!2 s!1 s!1)) (* 6 (* s!1 x!0)) (* (- 4) (* r!2 s00 s00)) ?x838 (* 2 (* r!2 s!1 s00)) (* (- 36) (* r!2 r00 x00)) (* 36 (* x!0 r00 r00)))))
 (let ((?x596 (* 6 ?x595)))
 (let ((?x552 (* (- 4) ?x539)))
 (let ((?x484 (* (- 18) ?x470)))
 (let ((?x489 (* 9 ?x374)))
 (let ((?x326 (* (- 3) s00)))
 (let ((?x932 (+ (* 3 s!1) ?x326 (* (- 9) (* r!2 s!1)) (* 9 (* r!2 s00)) ?x489 ?x484 (* 2 (* s!1 s!1)) (* 18 (* r!2 x!0)) (* 6 (* r!2 s!1 r00)) (* (- 6) ?x1360) ?x552 (* 18 (* x!0 r00)) ?x596 (* (- 18) (* r!2 x00)) (* 2 (* s!1 s00)) (* (- 9) (* s!1 r00)) (* (- 6) (* r!2 s00 r00)))))
 (let ((?x543 (+ ?x536 ?x1286 ?x1282 ?x44 ?x448 ?x449 (* 2 (* r!2 s!1)) (* (- 12) (* r!2 r00 r00)) (* 4 (* r!2 s00)) ?x452 ?x418)))
 (let (($x657 (and (= (+ s!1 (* (- 1) s00) (* (- 3) ?x1030) (* 3 ?x249)) 0) (= ?x543 0) (= ?x932 0) (= ?x602 0) (= ?x646 0) (not $x988))))
 (let (($x1230 (exists ((r Int) (s Int) (x Int) )(! (let ((?x249 (* r00 r00)))
 (let ((?x263 (* (- 3) ?x249)))
 (let ((?x237 (* r r)))
 (let ((?x238 (* 3 ?x237)))
 (let ((?x228 (* (- 1) s)))
 (let ((?x1424 (+ ?x228 x)))
 (let ((?x1364 (+ 1 r)))
 (let ((?x1294 (* x00 x00)))
 (let ((?x1324 (* (- 108) ?x1294)))
 (let ((?x1132 (* s00 s00 s00)))
 (let ((?x1323 (* (- 16) ?x1132)))
 (let ((?x1004 (* s00 r00 r00 r00)))
 (let ((?x1319 (* (- 216) ?x1004)))
 (let ((?x830 (* r00 r00 r00 x00)))
 (let ((?x831 (* 432 ?x830)))
 (let ((?x753 (* s00 x00)))
 (let ((?x1077 (* 108 ?x753)))
 (let ((?x679 (* s00 s00 r00 r00)))
 (let ((?x680 (* 36 ?x679)))
 (let ((?x616 (* s00 s00 r00)))
 (let ((?x960 (* 108 ?x616)))
 (let ((?x595 (* s00 r00 r00)))
 (let ((?x948 (* 36 ?x595)))
 (let ((?x539 (* s00 s00)))
 (let ((?x1313 (* (- 51) ?x539)))
 (let ((?x513 (* s r00 r00)))
 (let ((?x812 (* (- 36) ?x513)))
 (let ((?x470 (* r00 x00)))
 (let ((?x1310 (* (- 108) ?x470)))
 (let ((?x461 (* s00 r00 x00)))
 (let ((?x1309 (* (- 216) ?x461)))
 (let ((?x374 (* s00 r00)))
 (let ((?x468 (* 54 ?x374)))
 (let ((?x935 (* (- 9) s00)))
 (let ((?x143 (* 9 s)))
 (let ((?x1325 (+ ?x143 ?x935 ?x468 ?x1309 ?x1310 (* (- 15) (* s s)) ?x812 ?x1313 (* (- 108) (* x s00)) (* 108 (* x r00)) (* 216 (* s r00 r00 r00)) ?x948 ?x960 (* 66 (* s s00)) (* (- 54) (* s r00)) (* (- 108) (* s x00)) ?x680 (* (- 108) (* s s00 r00)) (* 4 (* s s s)) ?x1077 (* 108 (* s x)) (* (- 108) (* x x)) ?x831 (* 12 (* s s s00)) ?x1319 (* (- 432) (* x r00 r00 r00)) (* 216 (* x s00 r00)) (* (- 36) (* s s r00 r00)) ?x1323 (* 216 (* x x00)) ?x1324)))
 (let (($x1326 (= ?x1325 0)))
 (let ((?x825 (* r00 r00 x00)))
 (let ((?x838 (* (- 36) ?x825)))
 (let ((?x754 (* 6 ?x753)))
 (let ((?x644 (* (- 2) ?x616)))
 (let ((?x864 (* (- 15) ?x539)))
 (let ((?x493 (* s s)))
 (let ((?x517 (* 3 ?x493)))
 (let ((?x499 (* (- 54) ?x470)))
 (let ((?x512 (* 24 ?x374)))
 (let ((?x1027 (+ ?x143 ?x935 (* (- 24) (* r s)) (* 24 (* r s00)) ?x512 ?x499 ?x517 (* 54 (* r x)) (* 36 (* r x r00)) ?x812 ?x864 (* (- 6) (* x s00)) (* 54 (* x r00)) ?x948 (* 4 (* s s r00)) (* (- 54) (* r x00)) ?x644 (* 12 (* s s00)) (* (- 24) (* s r00)) (* (- 6) (* s x00)) (* (- 2) (* s s00 r00)) ?x754 (* 2 (* r s s)) (* 6 (* s x)) (* (- 4) (* r s00 s00)) ?x838 (* 2 (* r s s00)) (* (- 36) (* r r00 x00)) (* 36 (* x r00 r00)))))
 (let (($x1032 (= ?x1027 0)))
 (let ((?x596 (* 6 ?x595)))
 (let ((?x552 (* (- 4) ?x539)))
 (let ((?x494 (* 2 ?x493)))
 (let ((?x484 (* (- 18) ?x470)))
 (let ((?x489 (* 9 ?x374)))
 (let ((?x326 (* (- 3) s00)))
 (let ((?x47 (* 3 s)))
 (let ((?x693 (+ ?x47 ?x326 (* (- 9) (* r s)) (* 9 (* r s00)) ?x489 ?x484 ?x494 (* 18 (* r x)) (* 6 (* r s r00)) (* (- 6) ?x513) ?x552 (* 18 (* x r00)) ?x596 (* (- 18) (* r x00)) (* 2 (* s s00)) (* (- 9) (* s r00)) (* (- 6) (* r s00 r00)))))
 (let (($x700 (= ?x693 0)))
 (let ((?x417 (* r00 r00 r00)))
 (let ((?x418 (* 12 ?x417)))
 (let ((?x452 (* (- 6) ?x374)))
 (let ((?x449 (* (- 6) x00)))
 (let ((?x448 (* (- 3) r00)))
 (let ((?x44 (* 3 s00)))
 (let ((?x56 (* 6 x)))
 (let ((?x447 (* (- 3) s)))
 (let ((?x43 (* 3 r)))
 (let ((?x453 (+ ?x43 ?x447 ?x56 ?x44 ?x448 ?x449 (* 2 (* r s)) (* (- 12) (* r r00 r00)) (* 4 (* r s00)) ?x452 ?x418)))
 (let (($x454 (= ?x453 0)))
 (let (($x282 (= (+ s (* (- 1) s00) (* (- 3) ?x237) (* 3 ?x249)) 0)))
 (and $x282 $x454 $x700 $x1032 $x1326 (not (= (* ?x1364 ?x1364 ?x1364 ?x1424 (+ ?x228 s00 ?x238 ?x263)) 0)))))))))))))))))))))))))))))))))))))))))))))))))))))))))))))))))))))))) :qid k!35))
 ))
 (let (($x954 (exists ((r Int) (s Int) (x Int) )(! (let ((?x249 (* r00 r00)))
 (let ((?x263 (* (- 3) ?x249)))
 (let ((?x228 (* (- 1) s)))
 (let ((?x1246 (+ (- 3) s00 ?x228 (* (- 6) r) (* 3 (* (+ 1 r) (+ 1 r))) ?x263)))
 (let ((?x1364 (+ 1 r)))
 (let (($x1005 (not (= (* ?x1364 ?x1364 ?x1364 (+ x ?x228) ?x1246) 0))))
 (let ((?x1294 (* x00 x00)))
 (let ((?x318 (* 108 ?x1294)))
 (let ((?x1262 (* (- 9) s)))
 (let ((?x735 (* r00 r00 s00)))
 (let ((?x1213 (* (- 36) ?x735)))
 (let ((?x137 (* 9 s00)))
 (let ((?x539 (* s00 s00)))
 (let ((?x1113 (* 51 ?x539)))
 (let ((?x969 (* r00 r00 s)))
 (let ((?x1046 (* 36 ?x969)))
 (let ((?x1132 (* s00 s00 s00)))
 (let ((?x1043 (* 16 ?x1132)))
 (let ((?x753 (* s00 x00)))
 (let ((?x895 (* (- 108) ?x753)))
 (let ((?x830 (* r00 r00 r00 x00)))
 (let ((?x641 (* (- 432) ?x830)))
 (let ((?x470 (* r00 x00)))
 (let ((?x327 (* 108 ?x470)))
 (let ((?x337 (+ (* 216 (* r00 s00 x00)) ?x327 (* (- 54) (* r00 s00)) (* 15 (* s s)) (* (- 216) (* r00 r00 r00 s)) (* (- 36) (* r00 r00 s00 s00)) (* (- 4) (* s s s)) (* 108 (* x x)) ?x641 (* (- 12) (* s00 s s)) (* 108 (* s00 x)) (* (- 108) (* r00 s00 s00)) (* 216 (* r00 r00 r00 s00)) (* 108 (* x00 s)) (* 432 (* r00 r00 r00 x)) (* (- 66) (* s00 s)) (* 108 (* r00 s00 s)) ?x895 (* (- 216) (* r00 s00 x)) (* 36 (* r00 r00 s s)) ?x1043 (* (- 108) (* x s)) ?x1046 ?x1113 (* (- 108) (* r00 x)) ?x137 ?x1213 ?x1262 (* 54 (* r00 s)) (* (- 216) (* x00 x)) ?x318)))
 (let (($x343 (= ?x337 0)))
 (let ((?x681 (* 15 ?x539)))
 (let ((?x825 (* r00 r00 x00)))
 (let ((?x675 (* 36 ?x825)))
 (let ((?x1133 (* (- 6) ?x753)))
 (let ((?x782 (* 54 ?x470)))
 (let ((?x431 (+ (* 24 (* s r)) ?x782 (* (- 36) (* r00 x r)) (* (- 24) (* r00 s00)) (* (- 3) (* s s)) (* (- 54) (* x r)) (* 6 (* s00 x)) (* (- 4) (* r00 s s)) (* 2 (* r00 s00 s00)) (* 6 (* x00 s)) (* (- 12) (* s00 s)) (* 2 (* r00 s00 s)) ?x1133 (* (- 2) (* s s r)) (* (- 6) (* x s)) (* 4 (* s00 s00 r)) ?x1046 ?x675 ?x681 (* (- 2) (* s00 s r)) (* 36 (* r00 x00 r)) (* (- 54) (* r00 x)) ?x137 ?x1213 (* 54 (* x00 r)) ?x1262 (* (- 24) (* s00 r)) (* 24 (* r00 s)) (* (- 36) (* r00 r00 x)))))
 (let ((?x447 (* (- 3) s)))
 (let ((?x44 (* 3 s00)))
 (let ((?x366 (* 4 ?x539)))
 (let ((?x1072 (* 18 ?x470)))
 (let ((?x389 (+ (* 9 (* s r)) ?x1072 (* (- 9) (* r00 s00)) (* (- 2) (* s s)) (* (- 18) (* x r)) (* (- 6) (* r00 s r)) (* 6 ?x969) ?x366 (* (- 18) (* r00 x)) ?x44 (* (- 6) ?x735) (* 18 (* x00 r)) ?x447 (* (- 9) (* s00 r)) (* (- 2) (* s00 s)) (* 9 (* r00 s)) (* 6 (* r00 s00 r)))))
 (let ((?x417 (* r00 r00 r00)))
 (let ((?x418 (* 12 ?x417)))
 (let ((?x449 (* (- 6) x00)))
 (let ((?x56 (* 6 x)))
 (let ((?x448 (* (- 3) r00)))
 (let ((?x43 (* 3 r)))
 (let ((?x229 (+ (* 2 (* s r)) (* (- 12) (* r00 r00 r)) ?x43 ?x44 ?x447 ?x448 (* 4 (* s00 r)) (* (- 6) (* r00 s00)) ?x56 ?x449 ?x418)))
 (let (($x1169 (= (+ s00 ?x228 (* 3 (* r r)) ?x263) 0)))
 (and $x1169 (= ?x229 0) (= ?x389 0) (= ?x431 0) $x343 $x1005)))))))))))))))))))))))))))))))))))))))))))))) :qid k!35))
 ))
 (let ((?x1231 (lambda ((r Int) (s Int) (x Int) )(let ((?x249 (* r00 r00)))
 (let ((?x263 (* (- 3) ?x249)))
 (let ((?x237 (* r r)))
 (let ((?x238 (* 3 ?x237)))
 (let ((?x228 (* (- 1) s)))
 (let ((?x1424 (+ ?x228 x)))
 (let ((?x1364 (+ 1 r)))
 (let ((?x1294 (* x00 x00)))
 (let ((?x1324 (* (- 108) ?x1294)))
 (let ((?x1132 (* s00 s00 s00)))
 (let ((?x1323 (* (- 16) ?x1132)))
 (let ((?x1004 (* s00 r00 r00 r00)))
 (let ((?x1319 (* (- 216) ?x1004)))
 (let ((?x830 (* r00 r00 r00 x00)))
 (let ((?x831 (* 432 ?x830)))
 (let ((?x753 (* s00 x00)))
 (let ((?x1077 (* 108 ?x753)))
 (let ((?x679 (* s00 s00 r00 r00)))
 (let ((?x680 (* 36 ?x679)))
 (let ((?x616 (* s00 s00 r00)))
 (let ((?x960 (* 108 ?x616)))
 (let ((?x595 (* s00 r00 r00)))
 (let ((?x948 (* 36 ?x595)))
 (let ((?x539 (* s00 s00)))
 (let ((?x1313 (* (- 51) ?x539)))
 (let ((?x513 (* s r00 r00)))
 (let ((?x812 (* (- 36) ?x513)))
 (let ((?x470 (* r00 x00)))
 (let ((?x1310 (* (- 108) ?x470)))
 (let ((?x461 (* s00 r00 x00)))
 (let ((?x1309 (* (- 216) ?x461)))
 (let ((?x374 (* s00 r00)))
 (let ((?x468 (* 54 ?x374)))
 (let ((?x935 (* (- 9) s00)))
 (let ((?x143 (* 9 s)))
 (let ((?x1325 (+ ?x143 ?x935 ?x468 ?x1309 ?x1310 (* (- 15) (* s s)) ?x812 ?x1313 (* (- 108) (* x s00)) (* 108 (* x r00)) (* 216 (* s r00 r00 r00)) ?x948 ?x960 (* 66 (* s s00)) (* (- 54) (* s r00)) (* (- 108) (* s x00)) ?x680 (* (- 108) (* s s00 r00)) (* 4 (* s s s)) ?x1077 (* 108 (* s x)) (* (- 108) (* x x)) ?x831 (* 12 (* s s s00)) ?x1319 (* (- 432) (* x r00 r00 r00)) (* 216 (* x s00 r00)) (* (- 36) (* s s r00 r00)) ?x1323 (* 216 (* x x00)) ?x1324)))
 (let (($x1326 (= ?x1325 0)))
 (let ((?x825 (* r00 r00 x00)))
 (let ((?x838 (* (- 36) ?x825)))
 (let ((?x754 (* 6 ?x753)))
 (let ((?x644 (* (- 2) ?x616)))
 (let ((?x864 (* (- 15) ?x539)))
 (let ((?x493 (* s s)))
 (let ((?x517 (* 3 ?x493)))
 (let ((?x499 (* (- 54) ?x470)))
 (let ((?x512 (* 24 ?x374)))
 (let ((?x1027 (+ ?x143 ?x935 (* (- 24) (* r s)) (* 24 (* r s00)) ?x512 ?x499 ?x517 (* 54 (* r x)) (* 36 (* r x r00)) ?x812 ?x864 (* (- 6) (* x s00)) (* 54 (* x r00)) ?x948 (* 4 (* s s r00)) (* (- 54) (* r x00)) ?x644 (* 12 (* s s00)) (* (- 24) (* s r00)) (* (- 6) (* s x00)) (* (- 2) (* s s00 r00)) ?x754 (* 2 (* r s s)) (* 6 (* s x)) (* (- 4) (* r s00 s00)) ?x838 (* 2 (* r s s00)) (* (- 36) (* r r00 x00)) (* 36 (* x r00 r00)))))
 (let (($x1032 (= ?x1027 0)))
 (let ((?x596 (* 6 ?x595)))
 (let ((?x552 (* (- 4) ?x539)))
 (let ((?x494 (* 2 ?x493)))
 (let ((?x484 (* (- 18) ?x470)))
 (let ((?x489 (* 9 ?x374)))
 (let ((?x326 (* (- 3) s00)))
 (let ((?x47 (* 3 s)))
 (let ((?x693 (+ ?x47 ?x326 (* (- 9) (* r s)) (* 9 (* r s00)) ?x489 ?x484 ?x494 (* 18 (* r x)) (* 6 (* r s r00)) (* (- 6) ?x513) ?x552 (* 18 (* x r00)) ?x596 (* (- 18) (* r x00)) (* 2 (* s s00)) (* (- 9) (* s r00)) (* (- 6) (* r s00 r00)))))
 (let (($x700 (= ?x693 0)))
 (let ((?x417 (* r00 r00 r00)))
 (let ((?x418 (* 12 ?x417)))
 (let ((?x452 (* (- 6) ?x374)))
 (let ((?x449 (* (- 6) x00)))
 (let ((?x448 (* (- 3) r00)))
 (let ((?x44 (* 3 s00)))
 (let ((?x56 (* 6 x)))
 (let ((?x447 (* (- 3) s)))
 (let ((?x43 (* 3 r)))
 (let ((?x453 (+ ?x43 ?x447 ?x56 ?x44 ?x448 ?x449 (* 2 (* r s)) (* (- 12) (* r r00 r00)) (* 4 (* r s00)) ?x452 ?x418)))
 (let (($x454 (= ?x453 0)))
 (let (($x282 (= (+ s (* (- 1) s00) (* (- 3) ?x237) (* 3 ?x249)) 0)))
 (let (($x492 (and $x282 $x454 $x700 $x1032 $x1326 (not (= (* ?x1364 ?x1364 ?x1364 ?x1424 (+ ?x228 s00 ?x238 ?x263)) 0)))))
 (let ((?x639 (* ?x1364 ?x1364 ?x1364 (+ x ?x228) (+ (- 3) s00 ?x228 (* (- 6) r) (* 3 (* ?x1364 ?x1364)) ?x263))))
 (let (($x1005 (not (= ?x639 0))))
 (let ((?x318 (* 108 ?x1294)))
 (let ((?x1262 (* (- 9) s)))
 (let ((?x735 (* r00 r00 s00)))
 (let ((?x1213 (* (- 36) ?x735)))
 (let ((?x137 (* 9 s00)))
 (let ((?x1113 (* 51 ?x539)))
 (let ((?x969 (* r00 r00 s)))
 (let ((?x1046 (* 36 ?x969)))
 (let ((?x1043 (* 16 ?x1132)))
 (let ((?x895 (* (- 108) ?x753)))
 (let ((?x641 (* (- 432) ?x830)))
 (let ((?x327 (* 108 ?x470)))
 (let ((?x337 (+ (* 216 (* r00 s00 x00)) ?x327 (* (- 54) (* r00 s00)) (* 15 ?x493) (* (- 216) (* r00 r00 r00 s)) (* (- 36) (* r00 r00 s00 s00)) (* (- 4) (* s s s)) (* 108 (* x x)) ?x641 (* (- 12) (* s00 s s)) (* 108 (* s00 x)) (* (- 108) (* r00 s00 s00)) (* 216 (* r00 r00 r00 s00)) (* 108 (* x00 s)) (* 432 (* r00 r00 r00 x)) (* (- 66) (* s00 s)) (* 108 (* r00 s00 s)) ?x895 (* (- 216) (* r00 s00 x)) (* 36 (* r00 r00 s s)) ?x1043 (* (- 108) (* x s)) ?x1046 ?x1113 (* (- 108) (* r00 x)) ?x137 ?x1213 ?x1262 (* 54 (* r00 s)) (* (- 216) (* x00 x)) ?x318)))
 (let (($x343 (= ?x337 0)))
 (let ((?x681 (* 15 ?x539)))
 (let ((?x675 (* 36 ?x825)))
 (let ((?x1133 (* (- 6) ?x753)))
 (let ((?x782 (* 54 ?x470)))
 (let ((?x431 (+ (* 24 (* s r)) ?x782 (* (- 36) (* r00 x r)) (* (- 24) (* r00 s00)) (* (- 3) ?x493) (* (- 54) (* x r)) (* 6 (* s00 x)) (* (- 4) (* r00 s s)) (* 2 (* r00 s00 s00)) (* 6 (* x00 s)) (* (- 12) (* s00 s)) (* 2 (* r00 s00 s)) ?x1133 (* (- 2) (* s s r)) (* (- 6) (* x s)) (* 4 (* s00 s00 r)) ?x1046 ?x675 ?x681 (* (- 2) (* s00 s r)) (* 36 (* r00 x00 r)) (* (- 54) (* r00 x)) ?x137 ?x1213 (* 54 (* x00 r)) ?x1262 (* (- 24) (* s00 r)) (* 24 (* r00 s)) (* (- 36) (* r00 r00 x)))))
 (let ((?x366 (* 4 ?x539)))
 (let ((?x1072 (* 18 ?x470)))
 (let ((?x389 (+ (* 9 (* s r)) ?x1072 (* (- 9) (* r00 s00)) (* (- 2) ?x493) (* (- 18) (* x r)) (* (- 6) (* r00 s r)) (* 6 ?x969) ?x366 (* (- 18) (* r00 x)) ?x44 (* (- 6) ?x735) (* 18 (* x00 r)) ?x447 (* (- 9) (* s00 r)) (* (- 2) (* s00 s)) (* 9 (* r00 s)) (* 6 (* r00 s00 r)))))
 (let ((?x229 (+ (* 2 (* s r)) (* (- 12) (* r00 r00 r)) ?x43 ?x44 ?x447 ?x448 (* 4 (* s00 r)) (* (- 6) (* r00 s00)) ?x56 ?x449 ?x418)))
 (let (($x1169 (= (+ s00 ?x228 ?x238 ?x263) 0)))
 (let (($x425 (and $x1169 (= ?x229 0) (= ?x389 0) (= ?x431 0) $x343 $x1005)))
 (rewrite (= $x425 $x492))))))))))))))))))))))))))))))))))))))))))))))))))))))))))))))))))))))))))))))))))))))))))))))))))))
 ))
 (let (($x590 (exists ((r Int) (s Int) (x Int) )(! (let ((?x249 (* r00 r00)))
 (let ((?x263 (* (- 3) ?x249)))
 (let ((?x228 (* (- 1) s)))
 (let ((?x1246 (+ (- 3) s00 ?x228 (* (- 6) r) (* 3 (* (+ 1 r) (+ 1 r))) ?x263)))
 (let ((?x1364 (+ 1 r)))
 (let (($x1005 (not (= (* ?x1364 ?x1364 ?x1364 (+ x ?x228) ?x1246) 0))))
 (let ((?x1294 (* x00 x00)))
 (let ((?x318 (* 108 ?x1294)))
 (let ((?x1262 (* (- 9) s)))
 (let ((?x735 (* r00 r00 s00)))
 (let ((?x1213 (* (- 36) ?x735)))
 (let ((?x137 (* 9 s00)))
 (let ((?x539 (* s00 s00)))
 (let ((?x1113 (* 51 ?x539)))
 (let ((?x969 (* r00 r00 s)))
 (let ((?x1046 (* 36 ?x969)))
 (let ((?x1132 (* s00 s00 s00)))
 (let ((?x1043 (* 16 ?x1132)))
 (let ((?x753 (* s00 x00)))
 (let ((?x895 (* (- 108) ?x753)))
 (let ((?x830 (* r00 r00 r00 x00)))
 (let ((?x641 (* (- 432) ?x830)))
 (let ((?x470 (* r00 x00)))
 (let ((?x327 (* 108 ?x470)))
 (let ((?x337 (+ (* 216 (* r00 s00 x00)) ?x327 (* (- 54) (* r00 s00)) (* 15 (* s s)) (* (- 216) (* r00 r00 r00 s)) (* (- 36) (* r00 r00 s00 s00)) (* (- 4) (* s s s)) (* 108 (* x x)) ?x641 (* (- 12) (* s00 s s)) (* 108 (* s00 x)) (* (- 108) (* r00 s00 s00)) (* 216 (* r00 r00 r00 s00)) (* 108 (* x00 s)) (* 432 (* r00 r00 r00 x)) (* (- 66) (* s00 s)) (* 108 (* r00 s00 s)) ?x895 (* (- 216) (* r00 s00 x)) (* 36 (* r00 r00 s s)) ?x1043 (* (- 108) (* x s)) ?x1046 ?x1113 (* (- 108) (* r00 x)) ?x137 ?x1213 ?x1262 (* 54 (* r00 s)) (* (- 216) (* x00 x)) ?x318)))
 (let (($x343 (= ?x337 0)))
 (let ((?x143 (* 9 s)))
 (let ((?x935 (* (- 9) s00)))
 (let ((?x864 (* (- 15) ?x539)))
 (let ((?x825 (* r00 r00 x00)))
 (let ((?x838 (* (- 36) ?x825)))
 (let ((?x754 (* 6 ?x753)))
 (let ((?x493 (* s s)))
 (let ((?x517 (* 3 ?x493)))
 (let ((?x499 (* (- 54) ?x470)))
 (let ((?x603 (+ (* (- 24) (* s r)) ?x499 (* 36 (* r00 x r)) (* 24 (* r00 s00)) ?x517 (* 54 (* x r)) (* (- 6) (* s00 x)) (* 4 (* r00 s s)) (* (- 2) (* r00 s00 s00)) (* (- 6) (* x00 s)) (* 12 (* s00 s)) (* (- 2) (* r00 s00 s)) ?x754 (* 2 (* s s r)) (* 6 (* x s)) (* (- 4) (* s00 s00 r)) (* (- 36) ?x969) ?x838 ?x864 (* 2 (* s00 s r)) (* (- 36) (* r00 x00 r)) (* 54 (* r00 x)) ?x935 (* 36 ?x735) (* (- 54) (* x00 r)) ?x143 (* 24 (* s00 r)) (* (- 24) (* r00 s)) (* 36 (* r00 r00 x)))))
 (let ((?x47 (* 3 s)))
 (let ((?x326 (* (- 3) s00)))
 (let ((?x552 (* (- 4) ?x539)))
 (let ((?x494 (* 2 ?x493)))
 (let ((?x484 (* (- 18) ?x470)))
 (let ((?x1186 (+ (* (- 9) (* s r)) ?x484 (* 9 (* r00 s00)) ?x494 (* 18 (* x r)) (* 6 (* r00 s r)) (* (- 6) ?x969) ?x552 (* 18 (* r00 x)) ?x326 (* 6 ?x735) (* (- 18) (* x00 r)) ?x47 (* 9 (* s00 r)) (* 2 (* s00 s)) (* (- 9) (* r00 s)) (* (- 6) (* r00 s00 r)))))
 (let ((?x59 (* 6 x00)))
 (let ((?x48 (* 3 r00)))
 (let ((?x297 (* (- 3) r)))
 (let ((?x435 (+ (* (- 2) (* s r)) (* 12 (* r00 r00 r)) ?x297 ?x326 ?x47 ?x48 (* (- 4) (* s00 r)) (* 6 (* r00 s00)) (* (- 6) x) ?x59 (* (- 12) (* r00 r00 r00)))))
 (let (($x1169 (= (+ s00 ?x228 (* 3 (* r r)) ?x263) 0)))
 (and $x1169 (= ?x435 0) (= ?x1186 0) (= ?x603 0) $x343 $x1005)))))))))))))))))))))))))))))))))))))))))))))))) :qid k!35))
 ))
 (let ((?x433 (lambda ((r Int) (s Int) (x Int) )(let ((?x249 (* r00 r00)))
 (let ((?x263 (* (- 3) ?x249)))
 (let ((?x228 (* (- 1) s)))
 (let ((?x1246 (+ (- 3) s00 ?x228 (* (- 6) r) (* 3 (* (+ 1 r) (+ 1 r))) ?x263)))
 (let ((?x1364 (+ 1 r)))
 (let (($x1005 (not (= (* ?x1364 ?x1364 ?x1364 (+ x ?x228) ?x1246) 0))))
 (let ((?x1294 (* x00 x00)))
 (let ((?x318 (* 108 ?x1294)))
 (let ((?x1262 (* (- 9) s)))
 (let ((?x735 (* r00 r00 s00)))
 (let ((?x1213 (* (- 36) ?x735)))
 (let ((?x137 (* 9 s00)))
 (let ((?x539 (* s00 s00)))
 (let ((?x1113 (* 51 ?x539)))
 (let ((?x969 (* r00 r00 s)))
 (let ((?x1046 (* 36 ?x969)))
 (let ((?x1132 (* s00 s00 s00)))
 (let ((?x1043 (* 16 ?x1132)))
 (let ((?x753 (* s00 x00)))
 (let ((?x895 (* (- 108) ?x753)))
 (let ((?x830 (* r00 r00 r00 x00)))
 (let ((?x641 (* (- 432) ?x830)))
 (let ((?x470 (* r00 x00)))
 (let ((?x327 (* 108 ?x470)))
 (let ((?x337 (+ (* 216 (* r00 s00 x00)) ?x327 (* (- 54) (* r00 s00)) (* 15 (* s s)) (* (- 216) (* r00 r00 r00 s)) (* (- 36) (* r00 r00 s00 s00)) (* (- 4) (* s s s)) (* 108 (* x x)) ?x641 (* (- 12) (* s00 s s)) (* 108 (* s00 x)) (* (- 108) (* r00 s00 s00)) (* 216 (* r00 r00 r00 s00)) (* 108 (* x00 s)) (* 432 (* r00 r00 r00 x)) (* (- 66) (* s00 s)) (* 108 (* r00 s00 s)) ?x895 (* (- 216) (* r00 s00 x)) (* 36 (* r00 r00 s s)) ?x1043 (* (- 108) (* x s)) ?x1046 ?x1113 (* (- 108) (* r00 x)) ?x137 ?x1213 ?x1262 (* 54 (* r00 s)) (* (- 216) (* x00 x)) ?x318)))
 (let (($x343 (= ?x337 0)))
 (let ((?x681 (* 15 ?x539)))
 (let ((?x825 (* r00 r00 x00)))
 (let ((?x675 (* 36 ?x825)))
 (let ((?x1133 (* (- 6) ?x753)))
 (let ((?x782 (* 54 ?x470)))
 (let ((?x431 (+ (* 24 (* s r)) ?x782 (* (- 36) (* r00 x r)) (* (- 24) (* r00 s00)) (* (- 3) (* s s)) (* (- 54) (* x r)) (* 6 (* s00 x)) (* (- 4) (* r00 s s)) (* 2 (* r00 s00 s00)) (* 6 (* x00 s)) (* (- 12) (* s00 s)) (* 2 (* r00 s00 s)) ?x1133 (* (- 2) (* s s r)) (* (- 6) (* x s)) (* 4 (* s00 s00 r)) ?x1046 ?x675 ?x681 (* (- 2) (* s00 s r)) (* 36 (* r00 x00 r)) (* (- 54) (* r00 x)) ?x137 ?x1213 (* 54 (* x00 r)) ?x1262 (* (- 24) (* s00 r)) (* 24 (* r00 s)) (* (- 36) (* r00 r00 x)))))
 (let ((?x447 (* (- 3) s)))
 (let ((?x44 (* 3 s00)))
 (let ((?x366 (* 4 ?x539)))
 (let ((?x1072 (* 18 ?x470)))
 (let ((?x389 (+ (* 9 (* s r)) ?x1072 (* (- 9) (* r00 s00)) (* (- 2) (* s s)) (* (- 18) (* x r)) (* (- 6) (* r00 s r)) (* 6 ?x969) ?x366 (* (- 18) (* r00 x)) ?x44 (* (- 6) ?x735) (* 18 (* x00 r)) ?x447 (* (- 9) (* s00 r)) (* (- 2) (* s00 s)) (* 9 (* r00 s)) (* 6 (* r00 s00 r)))))
 (let ((?x417 (* r00 r00 r00)))
 (let ((?x418 (* 12 ?x417)))
 (let ((?x449 (* (- 6) x00)))
 (let ((?x56 (* 6 x)))
 (let ((?x448 (* (- 3) r00)))
 (let ((?x43 (* 3 r)))
 (let ((?x229 (+ (* 2 (* s r)) (* (- 12) (* r00 r00 r)) ?x43 ?x44 ?x447 ?x448 (* 4 (* s00 r)) (* (- 6) (* r00 s00)) ?x56 ?x449 ?x418)))
 (let (($x1169 (= (+ s00 ?x228 (* 3 (* r r)) ?x263) 0)))
 (let (($x425 (and $x1169 (= ?x229 0) (= ?x389 0) (= ?x431 0) $x343 $x1005)))
 (let ((?x143 (* 9 s)))
 (let ((?x935 (* (- 9) s00)))
 (let ((?x864 (* (- 15) ?x539)))
 (let ((?x838 (* (- 36) ?x825)))
 (let ((?x754 (* 6 ?x753)))
 (let ((?x493 (* s s)))
 (let ((?x517 (* 3 ?x493)))
 (let ((?x499 (* (- 54) ?x470)))
 (let ((?x603 (+ (* (- 24) (* s r)) ?x499 (* 36 (* r00 x r)) (* 24 (* r00 s00)) ?x517 (* 54 (* x r)) (* (- 6) (* s00 x)) (* 4 (* r00 s s)) (* (- 2) (* r00 s00 s00)) (* (- 6) (* x00 s)) (* 12 (* s00 s)) (* (- 2) (* r00 s00 s)) ?x754 (* 2 (* s s r)) (* 6 (* x s)) (* (- 4) (* s00 s00 r)) (* (- 36) ?x969) ?x838 ?x864 (* 2 (* s00 s r)) (* (- 36) (* r00 x00 r)) (* 54 (* r00 x)) ?x935 (* 36 ?x735) (* (- 54) (* x00 r)) ?x143 (* 24 (* s00 r)) (* (- 24) (* r00 s)) (* 36 (* r00 r00 x)))))
 (let ((?x47 (* 3 s)))
 (let ((?x326 (* (- 3) s00)))
 (let ((?x552 (* (- 4) ?x539)))
 (let ((?x494 (* 2 ?x493)))
 (let ((?x484 (* (- 18) ?x470)))
 (let ((?x1186 (+ (* (- 9) (* s r)) ?x484 (* 9 (* r00 s00)) ?x494 (* 18 (* x r)) (* 6 (* r00 s r)) (* (- 6) ?x969) ?x552 (* 18 (* r00 x)) ?x326 (* 6 ?x735) (* (- 18) (* x00 r)) ?x47 (* 9 (* s00 r)) (* 2 (* s00 s)) (* (- 9) (* r00 s)) (* (- 6) (* r00 s00 r)))))
 (let ((?x59 (* 6 x00)))
 (let ((?x48 (* 3 r00)))
 (let ((?x297 (* (- 3) r)))
 (let ((?x435 (+ (* (- 2) (* s r)) (* 12 (* r00 r00 r)) ?x297 ?x326 ?x47 ?x48 (* (- 4) (* s00 r)) (* 6 (* r00 s00)) (* (- 6) x) ?x59 (* (- 12) ?x417))))
 (let (($x1283 (and $x1169 (= ?x435 0) (= ?x1186 0) (= ?x603 0) $x343 $x1005)))
 (rewrite (= $x1283 $x425)))))))))))))))))))))))))))))))))))))))))))))))))))))))))))))))))))))
 ))
 (let (($x225 (exists ((r Int) (s Int) (x Int) )(! (let ((?x215 (+ r 1)))
 (let ((?x33 (* 3 r00 r00)))
 (let ((?x218 (- (+ (- s00 (+ s (* 6 r) 3)) (* 3 ?x215 ?x215)) ?x33)))
 (let ((?x143 (* 9 s)))
 (let ((?x139 (* 36 r00 r00 s00)))
 (let ((?x137 (* 9 s00)))
 (let ((?x123 (* 36 r00 r00 s)))
 (let ((?x157 (- (+ (* 216 r00 s00 x00) (* 108 r00 x00)) (* 54 r00 s00))))
 (let ((?x164 (- (- (+ ?x157 (* 15 s s)) (* 216 r00 r00 r00 s)) (* 36 r00 r00 s00 s00))))
 (let ((?x171 (- (+ (- ?x164 (* 4 s s s)) (* 108 x x)) (* 432 r00 r00 r00 x00))))
 (let ((?x176 (- (+ (- ?x171 (* 12 s s s00)) (* 108 s00 x)) (* 108 r00 s00 s00))))
 (let ((?x180 (+ ?x176 (* 216 r00 r00 r00 s00) (* 108 s x00) (* 432 r00 r00 r00 x))))
 (let ((?x188 (- (+ (- ?x180 (* 66 s s00)) (* 108 r00 s s00)) (* 108 s00 x00))))
 (let ((?x193 (+ (- ?x188 (* 216 r00 s00 x)) (* 36 r00 r00 s s) (* 16 s00 s00 s00))))
 (let ((?x200 (- (+ (- ?x193 (* 108 s x)) ?x123 (* 51 s00 s00)) (* 108 r00 x))))
 (let ((?x207 (- (+ (- (- (+ ?x200 ?x137) ?x139) ?x143) (* 54 r00 s)) (* 216 x x00))))
 (let ((?x105 (+ (- (* (- 24) r s) (* 54 r00 x00)) (* 36 r r00 x) (* 24 r00 s00) (* 3 s s) (* 54 r x))))
 (let ((?x112 (- (+ (- ?x105 (* 6 s00 x)) (* 4 r00 s s)) (* 2 r00 s00 s00))))
 (let ((?x117 (- (+ (- ?x112 (* 6 s x00)) (* 12 s s00)) (* 2 r00 s s00))))
 (let ((?x121 (+ ?x117 (* 6 s00 x00) (* 2 r s s) (* 6 s x))))
 (let ((?x129 (- (- (- ?x121 (* 4 r s00 s00)) ?x123) (* 36 r00 r00 x00))))
 (let ((?x134 (- (+ (- ?x129 (* 15 s00 s00)) (* 2 r s s00)) (* 36 r r00 x00))))
 (let ((?x142 (- (+ (- (+ ?x134 (* 54 r00 x)) ?x137) ?x139) (* 54 r x00))))
 (let ((?x149 (+ (- (+ ?x142 ?x143 (* 24 r s00)) (* 24 r00 s)) (* 36 r00 r00 x))))
 (let ((?x47 (* 3 s)))
 (let ((?x44 (* 3 s00)))
 (let ((?x74 (+ (- (* (- 9) r s) (* 18 r00 x00)) (* 9 r00 s00) (* 2 s s) (* 18 r x) (* 6 r r00 s))))
 (let ((?x80 (+ (- (- ?x74 (* 6 r00 r00 s)) (* 4 s00 s00)) (* 18 r00 x))))
 (let ((?x85 (- (+ (- ?x80 ?x44) (* 6 r00 r00 s00)) (* 18 r x00))))
 (let ((?x91 (- (+ ?x85 ?x47 (* 9 r s00) (* 2 s s00)) (* 9 r00 s))))
 (let ((?x59 (* 6 x00)))
 (let ((?x56 (* 6 x)))
 (let ((?x48 (* 3 r00)))
 (let ((?x43 (* 3 r)))
 (let ((?x46 (- (- (+ (* (- 2) r s) (* 12 r r00 r00)) ?x43) ?x44)))
 (let ((?x55 (+ (- (+ ?x46 ?x47 ?x48) (* 4 r s00)) (* 6 r00 s00))))
 (and (= (- (+ (- s00 s) (* 3 r r)) ?x33) 0) (= (- (+ (- ?x55 ?x56) ?x59) (* 12 r00 r00 r00)) 0) (= (- ?x91 (* 6 r r00 s00)) 0) (= ?x149 0) (= (+ ?x207 (* 108 x00 x00)) 0) (or (not (= (* ?x218 ?x215 ?x215 ?x215 (- x s)) 0)))))))))))))))))))))))))))))))))))))))) :qid k!35))
 ))
 (let ((?x691 (lambda ((r Int) (s Int) (x Int) )(let ((?x249 (* r00 r00)))
 (let ((?x263 (* (- 3) ?x249)))
 (let ((?x228 (* (- 1) s)))
 (let ((?x1246 (+ (- 3) s00 ?x228 (* (- 6) r) (* 3 (* (+ 1 r) (+ 1 r))) ?x263)))
 (let ((?x1364 (+ 1 r)))
 (let (($x1005 (not (= (* ?x1364 ?x1364 ?x1364 (+ x ?x228) ?x1246) 0))))
 (let ((?x1294 (* x00 x00)))
 (let ((?x318 (* 108 ?x1294)))
 (let ((?x1262 (* (- 9) s)))
 (let ((?x735 (* r00 r00 s00)))
 (let ((?x1213 (* (- 36) ?x735)))
 (let ((?x137 (* 9 s00)))
 (let ((?x539 (* s00 s00)))
 (let ((?x1113 (* 51 ?x539)))
 (let ((?x969 (* r00 r00 s)))
 (let ((?x1046 (* 36 ?x969)))
 (let ((?x1132 (* s00 s00 s00)))
 (let ((?x1043 (* 16 ?x1132)))
 (let ((?x753 (* s00 x00)))
 (let ((?x895 (* (- 108) ?x753)))
 (let ((?x830 (* r00 r00 r00 x00)))
 (let ((?x641 (* (- 432) ?x830)))
 (let ((?x470 (* r00 x00)))
 (let ((?x327 (* 108 ?x470)))
 (let ((?x337 (+ (* 216 (* r00 s00 x00)) ?x327 (* (- 54) (* r00 s00)) (* 15 (* s s)) (* (- 216) (* r00 r00 r00 s)) (* (- 36) (* r00 r00 s00 s00)) (* (- 4) (* s s s)) (* 108 (* x x)) ?x641 (* (- 12) (* s00 s s)) (* 108 (* s00 x)) (* (- 108) (* r00 s00 s00)) (* 216 (* r00 r00 r00 s00)) (* 108 (* x00 s)) (* 432 (* r00 r00 r00 x)) (* (- 66) (* s00 s)) (* 108 (* r00 s00 s)) ?x895 (* (- 216) (* r00 s00 x)) (* 36 (* r00 r00 s s)) ?x1043 (* (- 108) (* x s)) ?x1046 ?x1113 (* (- 108) (* r00 x)) ?x137 ?x1213 ?x1262 (* 54 (* r00 s)) (* (- 216) (* x00 x)) ?x318)))
 (let (($x343 (= ?x337 0)))
 (let ((?x143 (* 9 s)))
 (let ((?x935 (* (- 9) s00)))
 (let ((?x864 (* (- 15) ?x539)))
 (let ((?x825 (* r00 r00 x00)))
 (let ((?x838 (* (- 36) ?x825)))
 (let ((?x754 (* 6 ?x753)))
 (let ((?x493 (* s s)))
 (let ((?x517 (* 3 ?x493)))
 (let ((?x499 (* (- 54) ?x470)))
 (let ((?x603 (+ (* (- 24) (* s r)) ?x499 (* 36 (* r00 x r)) (* 24 (* r00 s00)) ?x517 (* 54 (* x r)) (* (- 6) (* s00 x)) (* 4 (* r00 s s)) (* (- 2) (* r00 s00 s00)) (* (- 6) (* x00 s)) (* 12 (* s00 s)) (* (- 2) (* r00 s00 s)) ?x754 (* 2 (* s s r)) (* 6 (* x s)) (* (- 4) (* s00 s00 r)) (* (- 36) ?x969) ?x838 ?x864 (* 2 (* s00 s r)) (* (- 36) (* r00 x00 r)) (* 54 (* r00 x)) ?x935 (* 36 ?x735) (* (- 54) (* x00 r)) ?x143 (* 24 (* s00 r)) (* (- 24) (* r00 s)) (* 36 (* r00 r00 x)))))
 (let ((?x47 (* 3 s)))
 (let ((?x326 (* (- 3) s00)))
 (let ((?x552 (* (- 4) ?x539)))
 (let ((?x494 (* 2 ?x493)))
 (let ((?x484 (* (- 18) ?x470)))
 (let ((?x1186 (+ (* (- 9) (* s r)) ?x484 (* 9 (* r00 s00)) ?x494 (* 18 (* x r)) (* 6 (* r00 s r)) (* (- 6) ?x969) ?x552 (* 18 (* r00 x)) ?x326 (* 6 ?x735) (* (- 18) (* x00 r)) ?x47 (* 9 (* s00 r)) (* 2 (* s00 s)) (* (- 9) (* r00 s)) (* (- 6) (* r00 s00 r)))))
 (let ((?x59 (* 6 x00)))
 (let ((?x48 (* 3 r00)))
 (let ((?x297 (* (- 3) r)))
 (let ((?x435 (+ (* (- 2) (* s r)) (* 12 (* r00 r00 r)) ?x297 ?x326 ?x47 ?x48 (* (- 4) (* s00 r)) (* 6 (* r00 s00)) (* (- 6) x) ?x59 (* (- 12) (* r00 r00 r00)))))
 (let (($x1169 (= (+ s00 ?x228 (* 3 (* r r)) ?x263) 0)))
 (let (($x1283 (and $x1169 (= ?x435 0) (= ?x1186 0) (= ?x603 0) $x343 $x1005)))
 (let ((?x215 (+ r 1)))
 (let ((?x33 (* 3 r00 r00)))
 (let ((?x218 (- (+ (- s00 (+ s (* 6 r) 3)) (* 3 ?x215 ?x215)) ?x33)))
 (let ((?x139 (* 36 r00 r00 s00)))
 (let ((?x123 (* 36 r00 r00 s)))
 (let ((?x157 (- (+ (* 216 r00 s00 x00) (* 108 r00 x00)) (* 54 r00 s00))))
 (let ((?x164 (- (- (+ ?x157 (* 15 s s)) (* 216 r00 r00 r00 s)) (* 36 r00 r00 s00 s00))))
 (let ((?x171 (- (+ (- ?x164 (* 4 s s s)) (* 108 x x)) (* 432 r00 r00 r00 x00))))
 (let ((?x176 (- (+ (- ?x171 (* 12 s s s00)) (* 108 s00 x)) (* 108 r00 s00 s00))))
 (let ((?x180 (+ ?x176 (* 216 r00 r00 r00 s00) (* 108 s x00) (* 432 r00 r00 r00 x))))
 (let ((?x188 (- (+ (- ?x180 (* 66 s s00)) (* 108 r00 s s00)) (* 108 s00 x00))))
 (let ((?x193 (+ (- ?x188 (* 216 r00 s00 x)) (* 36 r00 r00 s s) (* 16 s00 s00 s00))))
 (let ((?x200 (- (+ (- ?x193 (* 108 s x)) ?x123 (* 51 s00 s00)) (* 108 r00 x))))
 (let ((?x207 (- (+ (- (- (+ ?x200 ?x137) ?x139) ?x143) (* 54 r00 s)) (* 216 x x00))))
 (let ((?x105 (+ (- (* (- 24) r s) (* 54 r00 x00)) (* 36 r r00 x) (* 24 r00 s00) (* 3 s s) (* 54 r x))))
 (let ((?x112 (- (+ (- ?x105 (* 6 s00 x)) (* 4 r00 s s)) (* 2 r00 s00 s00))))
 (let ((?x117 (- (+ (- ?x112 (* 6 s x00)) (* 12 s s00)) (* 2 r00 s s00))))
 (let ((?x121 (+ ?x117 (* 6 s00 x00) (* 2 r s s) (* 6 s x))))
 (let ((?x129 (- (- (- ?x121 (* 4 r s00 s00)) ?x123) (* 36 r00 r00 x00))))
 (let ((?x134 (- (+ (- ?x129 (* 15 s00 s00)) (* 2 r s s00)) (* 36 r r00 x00))))
 (let ((?x142 (- (+ (- (+ ?x134 (* 54 r00 x)) ?x137) ?x139) (* 54 r x00))))
 (let ((?x149 (+ (- (+ ?x142 ?x143 (* 24 r s00)) (* 24 r00 s)) (* 36 r00 r00 x))))
 (let ((?x44 (* 3 s00)))
 (let ((?x74 (+ (- (* (- 9) r s) (* 18 r00 x00)) (* 9 r00 s00) (* 2 s s) (* 18 r x) (* 6 r r00 s))))
 (let ((?x80 (+ (- (- ?x74 (* 6 r00 r00 s)) (* 4 s00 s00)) (* 18 r00 x))))
 (let ((?x85 (- (+ (- ?x80 ?x44) (* 6 r00 r00 s00)) (* 18 r x00))))
 (let ((?x91 (- (+ ?x85 ?x47 (* 9 r s00) (* 2 s s00)) (* 9 r00 s))))
 (let ((?x56 (* 6 x)))
 (let ((?x43 (* 3 r)))
 (let ((?x46 (- (- (+ (* (- 2) r s) (* 12 r r00 r00)) ?x43) ?x44)))
 (let ((?x55 (+ (- (+ ?x46 ?x47 ?x48) (* 4 r s00)) (* 6 r00 s00))))
 (let (($x224 (and (= (- (+ (- s00 s) (* 3 r r)) ?x33) 0) (= (- (+ (- ?x55 ?x56) ?x59) (* 12 r00 r00 r00)) 0) (= (- ?x91 (* 6 r r00 s00)) 0) (= ?x149 0) (= (+ ?x207 (* 108 x00 x00)) 0) (or (not (= (* ?x218 ?x215 ?x215 ?x215 (- x s)) 0))))))
 (rewrite (= $x224 $x1283)))))))))))))))))))))))))))))))))))))))))))))))))))))))))))))))))))))))))))))))))))
 ))
 (let ((@x226 (asserted $x225)))
 (let ((@x583 (mp (mp @x226 (quant-intro (proof-bind ?x691) (= $x225 $x590)) $x590) (rewrite (= $x590 $x590)) $x590)))
 (let ((@x768 (mp (mp @x583 (quant-intro (proof-bind ?x433) (= $x590 $x954)) $x954) (quant-intro (proof-bind ?x1231) (= $x954 $x1230)) $x1230)))
 (let ((@x510 (mp (mp~ @x768 (sk (~ $x1230 $x657)) $x657) (rewrite (= $x657 $x995)) $x995)))
 (let ((@x1009 (and-elim @x510 $x342)))
 (let ((@x790 (unit-resolution ((_ th-lemma arith triangle-eq) (or (not $x342) $x696)) @x1009 $x696)))
 (let (($x682 (>= ?x488 0)))
 (let ((@x1274 (unit-resolution ((_ th-lemma arith triangle-eq) (or (not $x342) $x682)) @x1009 $x682)))
 (let (($x858 (not (<= ?x1001 0))))
 (let (($x940 (>= ?x1001 0)))
 (let ((@x1100 (unit-resolution ((_ th-lemma arith triangle-eq) (or $x309 $x858 (not $x940))) (and-elim @x510 $x1008) (or $x858 (not $x940)))))
 (let ((@x1217 (unit-resolution @x1100 (lemma ((_ th-lemma arith farkas 1 1 1) (hypothesis (not $x940)) @x1274 @x790 false) $x940) $x858)))
 ((_ th-lemma arith farkas 1 1 1) @x1217 @x1274 @x790 false)))))))))))))))))))))))))))))))))))))))))))))))))))))))))))))))))))))))))))))))))))))))))))))))))))))))))))))))

(:added-eqs                 5
 :arith-assert-diseq        1
 :arith-assert-lower        9
 :arith-assert-upper        8
 :arith-conflicts           2
 :arith-eq-adapter          6
 :arith-num-rows            7
 :arith-pseudo-nonlinear    2
 :arith-tableau-max-columns 93
 :arith-tableau-max-rows    7
 :conflicts                 2
 :decisions                 1
 :del-clause                17
 :max-memory                3.91
 :memory                    3.31
 :mk-bool-var               24
 :mk-clause                 19
 :num-allocs                1314002
 :num-checks                1
 :propagations              12
 :rlimit-count              6463
 :time                      0.01
 :total-time                0.02)
